c Lingeling SAT Solver
c 
c Version azf 92032848c138b2f33629ad24394d60a3787a1046
c 
c Copyright (C) 2010-2014 Armin Biere JKU Linz Austria.
c All rights reserved.
c 
c released Don Mai 22 22:08:00 CEST 2014
c compiled Mon Oct  6 05:55:43 PDT 2014
c 
c gcc (Ubuntu 4.8.2-19ubuntu1) 4.8.2
c -Wall -O3 -DNDBLSCR -DNLGLOG -DNDEBUG -DNCHKSOL -DNLGLPICOSAT -DNLGLDRUPLIG
c -DNLGLYALSAT
c Linux ubuntu 3.13.0-32-generic x86_64
c 
c reading input file benchmark-sat/translations/gc-myciel6-6.cnf
c no embedded options
c found 'p cnf 570 6050' header
c read 570 variables, 6050 clauses, 12480 literals in 0.00 seconds
c 
c  seconds         irredundant          redundant clauses agility   height
c          variables clauses conflicts large ternary binary    glue         MB
c 
c S    0.0     570     6050         0       0      0     0   0  0.0   0.0    0
c S    1.0     475     4530     27471    3708      0   950  17 16.2  29.0    2
c S    2.0     475     4530     60705    5872      0   950  16 16.3  29.2    3
c S    5.0     475     4530    151962    5137      0   950  17 16.6  29.7    2
c S   10.0     475     4530    295135   13364      0   950  17 16.6  29.5    6
c S   20.0     475     4530    532029    8618      0   950  17 16.8  29.6    3
c S   30.1     475     4530    811248   21167      0   950  17 17.0  29.6    5
c S   40.0     475     4530   1047672   16150      0   950  17 17.0  29.7    7
c S   50.0     475     4530   1268791   25632      0   950  17 17.2  29.6   10
c S   60.0     475     4530   1446310   41966      0   950  17 17.2  29.7   14
c S  120.0     475     4530   2595352    8797      0   950  18 17.5  30.1    3
c S  180.1     475     4530   3814711   49605      0   950  17 17.5  30.0   14
c S  240.0     475     4530   4856494   39150      0   950  17 17.5  29.9   13
c S  300.1     475     4530   5558153   66061      0   950  19 17.7  30.0   19
c S  600.2     475     4530   8065015  113315      0   950  19 17.4  28.9   38
c S  900.1     475     4530  12350521   46982      0   950  20 16.7  27.4   17
